c description: Random 3-CNF over 8 variables and 16 clauses
c generator: CNFgen (0.9.0)
c copyright: (C) 2012-2020 Massimo Lauria <massimo.lauria@uniroma1.it>
c url: https://massimolauria.net/cnfgen
c
p cnf 8 16
-1 2 4 0
1 3 5 0
4 -6 7 0
-4 -5 8 0
-1 -3 -7 0
-2 -3 -8 0
1 -3 -4 0
-4 6 8 0
-2 6 -8 0
3 5 8 0
-1 3 7 0
2 5 6 0
-3 7 -8 0
-1 4 5 0
-1 -4 6 0
1 -3 -6 0